20 64
1 5 1
1 6 1
1 9 1
1 10 1
1 14 1
1 15 1
1 17 1
2 5 1
2 6 1
2 7 1
2 9 1
2 12 1
2 14 1
3 5 1
3 6 1
3 8 1
3 10 1
3 11 1
3 12 1
3 18 1
3 19 1
4 5 1
4 7 1
4 9 1
4 20 1
5 6 1
5 7 1
5 8 1
5 10 1
5 13 1
5 15 1
5 16 1
5 18 1
5 19 1
6 7 1
6 8 1
6 11 1
6 14 1
6 15 1
6 16 1
6 18 1
7 8 1
7 9 1
7 11 1
7 16 1
7 19 1
7 20 1
8 10 1
8 11 1
8 12 1
8 14 1
8 17 1
8 19 1
9 13 1
9 18 1
9 20 1
10 13 1
10 15 1
11 12 1
11 13 1
11 17 1
12 16 1
14 17 1
17 20 1
